NAME : portcgen-15-23
COMMENT : portcgen N=15, seed=23
TYPE : TSP
DIMENSION : 15
EDGE_WEIGHT_TYPE : EUC_2D
NODE_COORD_SECTION
1 160920 -37589
2 66778 58804
3 -92694 100894
4 269876 14636
5 426354 59742
6 308721 345192
7 540664 -294291
8 -136330 -38564
9 444962 -117634
10 92243 -188352
11 97353 14850
12 100631 -4042
13 -373030 -311886
14 -178441 -103073
15 -26527 -117740
